Welcome to the CBC MILP Solver 
Version: 2.10.12 
Build Date: Aug 20 2024 

command line - /opt/homebrew/bin/cbc computational_data/real_data/lp/wine_trial_008.lp seconds 10.0 solve solu computational_data/real_data/solutions/wine_trial_008.sol (default strategy 1)
seconds was changed from 1e+100 to 10
Continuous objective value is 8.83333 - 0.00 seconds
Cgl0003I 0 fixed, 0 tightened bounds, 52 strengthened rows, 0 substitutions
Cgl0003I 0 fixed, 0 tightened bounds, 55 strengthened rows, 0 substitutions
Cgl0003I 0 fixed, 0 tightened bounds, 54 strengthened rows, 0 substitutions
Cgl0003I 0 fixed, 0 tightened bounds, 48 strengthened rows, 0 substitutions
Cgl0003I 0 fixed, 0 tightened bounds, 29 strengthened rows, 0 substitutions
Cgl0003I 0 fixed, 0 tightened bounds, 15 strengthened rows, 0 substitutions
Cgl0003I 0 fixed, 0 tightened bounds, 12 strengthened rows, 0 substitutions
Cgl0003I 0 fixed, 0 tightened bounds, 8 strengthened rows, 0 substitutions
Cgl0003I 0 fixed, 0 tightened bounds, 6 strengthened rows, 0 substitutions
Cgl0004I processed model has 54 rows, 21 columns (21 integer (20 of which binary)) and 350 elements
Cutoff increment increased from 1e-05 to 0.9999
Cbc0038I Initial state - 18 integers unsatisfied sum - 2.45238
Cbc0038I Pass   1: suminf.    0.00000 (0) obj. 9 iterations 14
Cbc0038I Solution found of 9
Cbc0038I Cleaned solution of 9
Cbc0038I Before mini branch and bound, 3 integers at bound fixed and 0 continuous
Cbc0038I Mini branch and bound did not improve solution (0.00 seconds)
Cbc0038I After 0.00 seconds - Feasibility pump exiting with objective of 9 - took 0.00 seconds
Cbc0012I Integer solution of 9 found by feasibility pump after 0 iterations and 0 nodes (0.00 seconds)
Cbc0001I Search completed - best objective 9, took 0 iterations and 0 nodes (0.00 seconds)
Cbc0035I Maximum depth 0, 1 variables fixed on reduced cost
Cuts at root node changed objective from 8.83333 to 8.83333
Probing was tried 0 times and created 0 cuts of which 0 were active after adding rounds of cuts (0.000 seconds)
Gomory was tried 0 times and created 0 cuts of which 0 were active after adding rounds of cuts (0.000 seconds)
Knapsack was tried 0 times and created 0 cuts of which 0 were active after adding rounds of cuts (0.000 seconds)
Clique was tried 0 times and created 0 cuts of which 0 were active after adding rounds of cuts (0.000 seconds)
MixedIntegerRounding2 was tried 0 times and created 0 cuts of which 0 were active after adding rounds of cuts (0.000 seconds)
FlowCover was tried 0 times and created 0 cuts of which 0 were active after adding rounds of cuts (0.000 seconds)
TwoMirCuts was tried 0 times and created 0 cuts of which 0 were active after adding rounds of cuts (0.000 seconds)
ZeroHalf was tried 0 times and created 0 cuts of which 0 were active after adding rounds of cuts (0.000 seconds)

Result - Optimal solution found

Objective value:                9.00000000
Enumerated nodes:               0
Total iterations:               0
Time (CPU seconds):             0.00
Time (Wallclock seconds):       0.01

Total time (CPU seconds):       0.00   (Wallclock seconds):       0.01

